c Random generated cnf formula, satisfiable: false
p cnf 10 50
1 -6 10 0
1 4 6 0
7 10 -8 0
10 6 -5 0
-2 -5 1 0
1 6 -5 0
-6 5 -10 0
-4 -8 -7 0
3 9 -10 0
10 -1 -9 0
-10 -5 -6 0
8 -2 -7 0
-8 10 -1 0
3 -1 -9 0
7 5 10 0
-9 2 -6 0
8 -1 -4 0
-5 10 1 0
3 2 -4 0
5 8 -7 0
4 -9 5 0
5 -1 10 0
-5 -2 -8 0
-6 8 2 0
8 10 7 0
-4 -8 6 0
6 7 -5 0
1 -8 -10 0
-5 -4 -2 0
10 -1 -9 0
5 8 4 0
3 4 -8 0
7 8 2 0
3 -6 -1 0
4 -5 3 0
2 -4 7 0
-5 -7 9 0
4 8 6 0
-1 -6 -8 0
8 5 3 0
-8 6 4 0
-4 8 6 0
3 -9 -6 0
-1 -8 -5 0
9 -8 -10 0
10 -7 -5 0
-1 -3 -10 0
-5 4 -1 0
7 -10 5 0
1 3 2 0
